(set-logic QF_S)
(declare-fun var0 () String)
(assert (RegexIn var0 (RegexConcat (RegexUnion (RegexPlus (Str2Reg "000")) (RegexPlus (Str2Reg "111"))) (RegexConcat (RegexStar (RegexPlus (Str2Reg "22"))) (RegexConcat (RegexPlus (RegexUnion (Str2Reg "333") (Str2Reg "44"))) (RegexConcat (RegexPlus (RegexUnion (Str2Reg "555") (Str2Reg "666"))) (RegexConcat (RegexUnion (RegexUnion (Str2Reg "77") (Str2Reg "8")) (RegexUnion (Str2Reg "99") (Str2Reg "aaa"))) (RegexConcat (RegexPlus (RegexUnion (Str2Reg "b") (Str2Reg "cc"))) (RegexConcat (RegexUnion (RegexUnion (Str2Reg "ddd") (Str2Reg "e")) (RegexUnion (Str2Reg "fff") (Str2Reg "ggg"))) (RegexConcat (RegexUnion (RegexUnion (Str2Reg "h") (Str2Reg "i")) (RegexUnion (Str2Reg "j") (Str2Reg "kkk"))) (RegexConcat (RegexStar (RegexPlus (Str2Reg "l"))) (RegexConcat (RegexPlus (RegexPlus (Str2Reg "mmm"))) (RegexConcat (RegexUnion (RegexStar (Str2Reg "n")) (RegexStar (Str2Reg "o"))) (RegexConcat (RegexStar (RegexPlus (Str2Reg "pp"))) (RegexConcat (RegexUnion (RegexPlus (Str2Reg "qqq")) (RegexPlus (Str2Reg "r"))) (RegexConcat (RegexStar (RegexStar (Str2Reg "sss"))) (RegexConcat (RegexUnion (RegexPlus (Str2Reg "t")) (RegexPlus (Str2Reg "uu"))) (RegexConcat (RegexUnion (RegexPlus (Str2Reg "vv")) (RegexPlus (Str2Reg "w"))) (RegexConcat (RegexUnion (RegexPlus (Str2Reg "xxx")) (RegexPlus (Str2Reg "y"))) (RegexConcat (RegexUnion (RegexStar (Str2Reg "z")) (RegexStar (Str2Reg "AAA"))) (RegexConcat (RegexStar (RegexUnion (Str2Reg "B") (Str2Reg "CC"))) (RegexConcat (RegexStar (RegexStar (Str2Reg "DD"))) (RegexConcat (RegexUnion (RegexUnion (Str2Reg "EE") (Str2Reg "F")) (RegexUnion (Str2Reg "GGG") (Str2Reg "H"))) (RegexConcat (RegexStar (RegexUnion (Str2Reg "I") (Str2Reg "JJ"))) (RegexConcat (RegexPlus (RegexPlus (Str2Reg "K"))) (RegexConcat (RegexPlus (RegexUnion (Str2Reg "L") (Str2Reg "MM"))) (RegexConcat (RegexStar (RegexUnion (Str2Reg "NN") (Str2Reg "O"))) (RegexUnion (RegexUnion (Str2Reg "PPP") (Str2Reg "QQ")) (RegexUnion (Str2Reg "RRR") (Str2Reg "S"))))))))))))))))))))))))))))))
(assert (not (RegexIn var0 (RegexConcat (RegexPlus (RegexUnion (Str2Reg "00") (Str2Reg "11"))) (RegexConcat (RegexPlus (RegexUnion (Str2Reg "2") (Str2Reg "33"))) (RegexConcat (RegexUnion (RegexStar (Str2Reg "44")) (RegexStar (Str2Reg "5"))) (RegexConcat (RegexStar (RegexUnion (Str2Reg "6") (Str2Reg "777"))) (RegexConcat (RegexUnion (RegexStar (Str2Reg "88")) (RegexStar (Str2Reg "9"))) (RegexConcat (RegexUnion (RegexPlus (Str2Reg "aa")) (RegexPlus (Str2Reg "bbb"))) (RegexConcat (RegexStar (RegexStar (Str2Reg "c"))) (RegexConcat (RegexStar (RegexStar (Str2Reg "dd"))) (RegexConcat (RegexStar (RegexStar (Str2Reg "eee"))) (RegexConcat (RegexStar (RegexStar (Str2Reg "f"))) (RegexConcat (RegexStar (RegexPlus (Str2Reg "ggg"))) (RegexConcat (RegexStar (RegexPlus (Str2Reg "hhh"))) (RegexConcat (RegexPlus (RegexPlus (Str2Reg "i"))) (RegexConcat (RegexPlus (RegexUnion (Str2Reg "jjj") (Str2Reg "k"))) (RegexConcat (RegexPlus (RegexUnion (Str2Reg "l") (Str2Reg "m"))) (RegexConcat (RegexStar (RegexUnion (Str2Reg "n") (Str2Reg "o"))) (RegexConcat (RegexUnion (RegexUnion (Str2Reg "p") (Str2Reg "qq")) (RegexUnion (Str2Reg "rr") (Str2Reg "s"))) (RegexConcat (RegexUnion (RegexPlus (Str2Reg "ttt")) (RegexPlus (Str2Reg "u"))) (RegexConcat (RegexPlus (RegexStar (Str2Reg "vv"))) (RegexConcat (RegexUnion (RegexUnion (Str2Reg "ww") (Str2Reg "xx")) (RegexUnion (Str2Reg "yyy") (Str2Reg "zz"))) (RegexConcat (RegexUnion (RegexStar (Str2Reg "AA")) (RegexStar (Str2Reg "BBB"))) (RegexConcat (RegexUnion (RegexPlus (Str2Reg "C")) (RegexPlus (Str2Reg "DD"))) (RegexConcat (RegexStar (RegexStar (Str2Reg "E"))) (RegexConcat (RegexUnion (RegexUnion (Str2Reg "FFF") (Str2Reg "GGG")) (RegexUnion (Str2Reg "HHH") (Str2Reg "II"))) (RegexConcat (RegexPlus (RegexUnion (Str2Reg "JJJ") (Str2Reg "K"))) (RegexPlus (RegexStar (Str2Reg "L")))))))))))))))))))))))))))))))
(check-sat)